535019800530890565012,7,1,2,09,4,1,2,015,1,1,2,05,10,1,2,012,13,1,2,09,11,1,2,02,13,1,2,012,4,1,2,07,6,1,2,011,1,1,2,08,10,1,2,08,2,1,2,012,3,1,2,09,11,1,2,02,8,1,2,05,3,1,2,011,8,1,2,02,12,1,2,07,1,1,2,04,13,1,2,09,6,1,2,08,12,1,2,012,15,1,2,013,11,1,2,04,2,1,2,010,11,1,2,06,8,1,2,08,3,1,2,013,4,1,2,012,11,1,2,08,10,1,2,05,10,1,2,03,10,1,2,02,11,1,2,02,12,1,2,08,14,1,2,01,14,1,2,010,13,1,2,014,4,1,2,05,10,1,2,08,4,1,2,011,15,1,2,09,1,1,2,05,11,1,2,012,3,1,2,09,4,1,2,010,2,1,2,014,13,1,2,015,1,1,2,010,7,1,2,0